% seed = 0

mint = 39;
% maxt = 181;

nActs = 92;
dur = [0,3,4,1,3,2,1,2,4,2,1,1,4,1,1,2,2,2,3,1,1,1,1,3,2,1,2,2,3,1,1,2,3,1,2,1,2,4,4,3,3,3,3,1,1,1,1,2,1,1,2,4,3,1,1,2,2,2,2,4,2,3,1,2,1,1,1,3,1,1,1,2,3,2,2,2,2,2,1,1,3,1,2,2,1,4,4,3,4,1,2,0];

nSkills = 12;
sreq = [| 0,0,0,0,0,0,0,0,0,0,0,0,
	| 0,1,0,0,0,0,0,0,0,0,0,0,
	| 0,0,0,0,0,1,0,0,3,0,1,0,
	| 0,0,0,0,0,0,0,0,1,1,0,0,
	| 0,0,0,0,0,0,0,0,2,0,1,0,
	| 0,0,0,0,0,0,0,0,1,0,1,0,
	| 0,0,0,1,0,0,0,0,1,0,0,0,
	| 0,0,1,0,0,0,0,1,1,0,0,0,
	| 0,0,0,0,0,1,1,0,0,1,0,0,
	| 0,0,0,0,0,0,0,0,1,1,0,0,
	| 0,0,0,0,0,1,0,1,0,0,0,0,
	| 0,0,0,0,0,0,0,1,1,1,0,0,
	| 0,0,0,0,0,0,0,0,0,0,1,0,
	| 0,0,0,0,0,0,0,0,1,0,1,0,
	| 0,0,1,0,0,0,1,0,0,0,0,0,
	| 0,0,0,0,1,0,0,0,1,2,0,0,
	| 0,0,0,0,0,0,1,0,0,0,0,0,
	| 0,1,0,0,1,0,0,0,2,0,1,0,
	| 0,0,1,0,0,0,0,1,0,0,0,0,
	| 0,0,1,0,1,0,0,0,0,0,1,0,
	| 0,0,1,1,0,0,0,1,1,0,1,0,
	| 0,0,0,0,0,1,0,1,0,1,1,0,
	| 0,0,0,0,0,0,0,0,2,1,0,0,
	| 0,0,0,0,0,0,0,0,2,0,1,0,
	| 1,0,1,0,0,0,0,0,2,0,1,0,
	| 0,0,0,0,0,0,0,0,1,0,0,0,
	| 0,0,0,0,0,0,0,0,1,0,0,0,
	| 0,0,1,0,0,0,0,0,1,1,2,0,
	| 0,0,0,0,0,0,0,0,1,1,0,0,
	| 0,0,2,0,0,0,1,0,1,0,0,0,
	| 0,1,1,0,0,0,0,0,1,0,0,0,
	| 0,0,1,0,0,1,0,0,3,0,0,0,
	| 0,0,1,0,0,1,0,0,1,0,1,0,
	| 0,0,1,0,0,1,0,0,1,0,1,0,
	| 0,0,1,0,0,0,0,1,0,0,0,0,
	| 0,0,1,0,0,0,0,1,2,0,0,0,
	| 0,0,1,1,0,0,1,0,1,0,0,0,
	| 0,0,0,0,0,0,0,0,1,1,0,0,
	| 0,0,1,0,0,0,0,0,1,0,0,0,
	| 0,0,0,0,0,0,0,0,0,0,2,0,
	| 0,0,0,0,0,0,0,0,1,0,0,0,
	| 0,0,0,0,0,0,1,1,0,2,1,0,
	| 0,0,1,0,1,0,0,1,1,0,0,0,
	| 0,0,0,0,1,0,0,0,2,0,0,0,
	| 0,0,1,0,1,0,0,1,0,0,0,0,
	| 0,1,1,0,0,0,0,1,1,0,1,0,
	| 0,0,1,0,0,0,0,0,0,0,0,0,
	| 0,0,0,0,0,0,0,1,0,1,0,0,
	| 0,0,1,0,0,0,0,0,2,0,0,0,
	| 0,0,0,0,0,0,0,0,1,0,0,0,
	| 0,0,1,0,0,0,0,0,0,0,0,0,
	| 0,0,0,0,1,0,0,0,1,1,0,0,
	| 0,0,0,0,0,0,0,1,0,0,0,0,
	| 0,1,0,0,0,0,0,0,1,2,0,0,
	| 0,1,0,0,0,0,0,0,2,0,1,0,
	| 0,0,0,0,1,0,0,0,0,0,0,0,
	| 0,0,1,0,0,0,0,0,1,0,0,0,
	| 0,0,1,0,0,0,0,0,2,1,0,0,
	| 0,0,0,0,1,0,0,0,0,1,0,0,
	| 0,0,0,0,0,0,0,1,1,1,0,0,
	| 0,0,0,0,0,0,0,0,3,0,2,0,
	| 0,1,0,0,0,0,0,1,0,0,0,0,
	| 0,0,2,0,0,0,0,1,0,0,1,0,
	| 1,1,0,0,0,1,0,0,0,2,0,0,
	| 0,0,0,0,0,0,0,0,1,0,0,0,
	| 0,0,2,0,0,0,0,0,0,1,0,0,
	| 0,0,1,0,1,0,0,0,0,0,2,0,
	| 0,0,1,1,0,0,0,0,1,0,1,0,
	| 0,0,0,0,0,0,0,1,2,0,1,0,
	| 1,0,0,0,0,0,0,1,1,0,1,0,
	| 0,0,0,0,0,0,0,0,1,0,0,0,
	| 0,0,0,0,0,0,0,0,1,0,0,0,
	| 0,0,1,0,0,0,0,0,2,0,2,0,
	| 0,0,0,0,0,0,0,0,1,0,0,0,
	| 0,0,0,0,1,0,0,0,0,0,1,0,
	| 0,1,1,0,0,1,0,1,1,0,0,0,
	| 1,0,0,0,1,0,0,0,2,1,0,0,
	| 0,0,0,1,0,0,0,0,1,1,1,0,
	| 0,1,1,0,1,0,0,0,1,0,1,0,
	| 0,0,0,0,0,0,0,0,0,1,0,1,
	| 0,0,0,0,0,1,0,0,1,0,0,0,
	| 0,0,1,0,0,0,0,0,1,0,1,0,
	| 0,1,1,0,0,0,0,0,1,1,0,0,
	| 0,1,0,0,0,0,0,0,0,0,0,0,
	| 0,0,2,0,0,0,0,0,0,0,1,0,
	| 0,0,1,1,0,0,1,0,0,1,1,0,
	| 0,0,0,0,2,0,0,1,0,1,0,0,
	| 0,0,0,0,0,0,0,0,0,0,1,0,
	| 0,0,1,1,0,0,0,0,0,0,0,0,
	| 0,0,1,0,0,0,0,0,1,2,1,0,
	| 0,0,3,0,1,0,0,1,0,0,0,0,
	| 0,0,0,0,0,0,0,0,0,0,0,0, |];

% SumOfsreq = 268;

nResources = 16;
mastery = [| false,false,false,false,false,false,false,true,true,false,true,true,
	| false,false,false,false,false,false,false,false,false,true,true,true,
	| false,false,false,false,true,true,false,false,false,false,false,false,
	| false,false,false,false,false,false,false,false,false,true,true,true,
	| false,false,false,false,false,false,false,true,true,false,false,false,
	| false,false,true,false,false,false,false,false,false,false,false,false,
	| false,false,true,false,false,false,false,false,false,false,false,false,
	| false,false,false,false,false,false,true,true,true,false,false,false,
	| false,false,false,false,false,false,false,false,false,true,true,true,
	| false,false,false,true,true,true,false,false,false,true,true,true,
	| false,true,true,false,false,false,false,false,false,false,false,false,
	| false,false,false,false,false,false,false,false,true,false,false,false,
	| false,false,false,false,false,false,false,false,true,false,false,false,
	| false,false,false,false,false,false,false,false,true,false,false,false,
	| true,true,true,false,false,false,false,false,false,false,false,false,
	| false,false,false,false,false,false,false,false,false,true,true,true, |];

nPrecs = 194;
pred = [1,1,1,2,2,2,3,3,3,4,4,4,5,5,5,6,6,7,7,7,8,8,8,9,9,10,10,10,11,11,11,12,12,12,13,13,13,14,14,14,15,15,15,16,16,16,17,17,17,18,18,19,19,19,20,20,20,21,21,21,22,22,23,23,24,24,25,25,25,26,26,26,27,27,27,28,28,28,29,29,29,30,30,30,31,31,31,32,32,33,33,33,34,34,34,35,35,35,36,37,38,38,38,39,39,39,40,40,40,41,41,42,42,43,43,43,44,44,44,45,45,46,46,46,47,48,48,48,49,50,51,51,52,52,53,53,53,54,54,54,55,55,56,56,56,57,57,58,58,58,59,60,61,61,61,62,62,62,63,64,64,65,65,66,66,67,68,68,69,70,71,72,73,73,74,75,76,77,78,79,80,80,81,81,82,83,84,85,86,87,88,89,90,91];
succ = [2,3,4,10,5,8,26,14,34,12,6,80,25,39,7,9,15,17,19,72,28,12,15,25,11,18,68,13,22,23,16,33,27,36,53,75,45,41,57,68,52,20,56,82,21,70,44,36,80,25,39,59,45,80,61,53,47,83,29,71,77,47,32,24,35,30,42,51,70,42,78,58,44,37,32,33,35,68,38,31,56,49,60,44,41,57,61,35,83,67,60,40,73,52,54,50,91,70,89,39,73,66,81,41,43,63,58,76,46,66,48,60,56,90,45,46,54,55,48,65,50,71,54,47,88,50,52,79,62,85,53,55,65,78,65,77,64,59,77,75,59,64,57,72,64,69,63,61,62,72,78,69,81,74,79,75,71,63,87,89,66,67,69,90,67,74,82,76,76,79,73,84,74,84,91,83,87,84,91,86,81,82,90,86,85,86,85,88,87,88,89,92,92,92];

nUnrels = 2278;
unpred = [2,2,2,2,2,2,2,2,2,2,2,2,2,2,2,2,2,2,3,3,3,3,3,3,3,3,3,3,3,3,3,3,3,3,3,3,3,3,3,3,3,3,3,3,3,3,3,3,3,3,3,3,3,3,3,3,3,3,3,3,3,3,3,4,4,4,4,4,4,4,4,4,4,4,4,4,5,5,5,5,5,5,5,5,5,5,5,5,5,5,5,5,5,5,5,5,5,5,5,5,5,5,5,5,5,5,5,5,5,5,6,6,6,6,6,6,6,6,6,6,6,6,6,6,6,6,6,6,6,6,6,6,6,6,7,7,7,7,7,7,7,7,7,7,7,7,7,7,7,7,7,7,7,7,7,7,7,7,7,7,7,7,7,7,7,7,7,7,7,7,7,7,7,7,7,7,7,7,7,7,7,7,7,8,8,8,8,8,8,8,8,8,8,8,8,8,8,8,8,8,8,8,8,8,8,8,8,9,9,9,9,9,9,9,9,9,9,9,9,9,9,9,9,9,9,9,9,9,9,9,9,10,10,10,10,10,10,10,10,10,10,10,10,10,10,10,10,10,10,10,10,10,10,10,10,10,10,10,10,10,10,10,10,10,11,11,11,11,11,11,11,11,11,11,11,11,11,11,11,11,11,11,11,11,11,11,11,11,11,11,11,12,12,12,12,12,12,12,12,12,12,12,12,12,12,12,12,12,12,12,12,12,12,12,12,12,12,12,12,12,13,13,13,13,13,13,13,13,13,13,13,13,13,13,13,13,13,13,13,13,13,13,13,13,13,13,13,13,13,13,13,13,13,13,13,13,13,13,13,13,13,13,13,13,13,13,13,13,13,13,13,13,13,13,13,13,13,14,14,14,14,14,14,14,14,14,14,14,14,14,14,14,14,14,14,14,14,14,14,14,14,14,14,14,14,14,14,14,14,14,14,14,14,14,14,14,14,14,14,14,14,14,14,14,14,14,14,14,14,14,14,15,15,15,15,15,15,15,15,15,15,15,15,15,15,15,15,15,15,15,15,15,15,15,15,15,15,15,15,15,15,15,15,15,15,15,15,15,15,15,15,15,15,15,15,15,15,15,15,16,16,16,16,16,16,16,16,16,16,16,16,16,16,16,16,16,16,16,16,16,16,16,16,16,16,16,16,16,16,16,16,16,16,16,16,16,16,16,17,17,17,17,17,17,17,17,17,17,17,17,17,17,17,17,17,17,17,17,17,17,17,17,17,17,17,17,17,17,17,17,17,17,17,17,17,17,17,17,17,17,17,18,18,18,18,18,18,18,18,18,18,18,18,18,18,18,18,18,18,18,18,18,18,18,18,18,18,18,18,18,19,19,19,19,19,19,19,19,19,19,19,19,19,19,19,19,19,19,19,19,19,19,19,19,19,19,19,19,19,19,19,19,19,19,19,19,19,19,19,19,19,19,19,19,19,19,19,19,19,19,19,19,19,20,20,20,20,20,20,20,20,20,20,20,20,20,20,20,20,20,20,20,20,20,20,20,20,20,20,20,20,20,20,20,20,20,20,20,20,20,20,20,20,20,20,20,20,20,20,20,20,20,20,21,21,21,21,21,21,21,21,21,21,21,21,21,21,21,21,21,21,21,21,21,21,21,21,21,21,21,21,21,21,21,21,21,21,21,21,21,22,22,22,22,22,22,22,22,22,22,22,22,22,22,22,22,22,22,22,22,22,22,22,22,22,22,22,22,22,22,22,22,22,22,22,22,22,22,22,22,22,22,22,22,22,22,22,22,22,22,22,22,22,22,22,22,22,22,22,22,22,22,22,23,23,23,23,23,23,23,23,23,23,23,23,23,23,23,23,23,23,23,23,23,23,23,23,23,23,23,23,23,23,24,24,24,24,24,24,24,24,24,24,24,24,24,24,24,24,24,24,24,24,24,24,24,24,24,24,24,24,24,24,24,25,25,25,25,25,25,25,25,25,25,25,25,25,25,25,25,25,25,25,25,25,25,25,25,25,25,25,25,25,25,25,25,25,25,25,25,25,26,26,26,26,26,26,26,26,26,26,26,26,26,26,26,26,26,26,26,26,26,26,26,26,26,26,26,26,26,26,26,26,26,26,26,27,27,27,27,27,27,27,27,27,27,27,27,27,27,27,27,27,27,27,27,27,27,27,27,28,28,28,28,28,28,28,28,28,28,28,28,28,28,28,28,28,28,28,28,28,28,28,28,28,28,29,29,29,29,29,29,29,29,29,29,29,29,29,29,29,29,29,29,29,29,29,29,29,29,29,29,29,29,29,29,29,29,30,30,30,30,30,30,30,30,30,30,30,30,30,30,30,30,30,30,30,30,30,30,30,30,30,30,30,30,31,31,31,31,31,31,31,31,31,31,31,31,31,31,31,31,31,31,31,31,31,31,31,31,31,31,31,31,31,31,31,31,31,31,31,31,31,32,32,32,32,32,32,32,32,32,32,32,32,32,32,32,32,32,32,32,32,32,32,32,32,32,32,32,32,32,32,32,32,32,32,32,32,32,32,32,32,32,32,32,32,32,32,32,32,33,33,33,33,33,33,33,33,33,33,33,33,33,33,33,33,33,33,33,33,33,33,33,33,33,33,33,34,34,34,34,34,34,34,34,34,34,34,34,34,34,34,34,34,34,34,34,34,34,34,34,34,34,34,34,34,34,34,34,34,34,34,34,34,35,35,35,35,35,35,35,35,35,35,35,35,35,35,35,35,35,35,35,35,35,35,35,35,35,35,35,35,35,35,35,35,35,35,35,35,35,35,35,35,35,35,35,35,35,35,35,36,36,36,36,36,36,36,36,36,36,36,36,36,36,36,36,36,36,36,36,36,36,36,36,36,36,36,36,36,36,36,36,36,36,36,36,36,36,36,36,36,36,36,36,36,36,36,36,36,36,36,36,36,36,37,37,37,37,37,37,37,37,37,37,37,37,37,37,37,37,37,37,37,37,37,38,38,38,38,38,38,38,38,38,38,38,38,38,38,38,38,38,38,38,38,38,38,38,38,38,38,38,38,38,38,38,38,38,38,38,38,38,38,38,38,39,39,39,39,39,39,39,39,39,39,39,39,39,39,39,39,39,39,39,39,40,40,40,40,40,40,40,40,40,40,40,40,40,40,40,40,40,40,40,40,40,40,40,40,41,41,41,41,41,41,41,41,41,41,41,41,41,41,41,41,41,41,41,41,41,41,41,41,41,41,41,41,41,41,41,41,42,42,42,42,42,42,42,42,42,42,42,42,42,42,42,42,42,42,42,42,42,42,42,42,42,42,42,42,42,42,42,43,43,43,43,43,43,43,43,43,43,43,43,43,43,43,43,43,43,43,43,43,43,43,44,44,44,44,44,44,44,44,44,44,44,44,44,44,44,44,44,44,44,44,44,45,45,45,45,45,45,45,45,45,45,45,45,45,45,45,45,45,45,45,45,45,45,45,45,45,45,45,45,45,45,45,45,45,45,45,46,46,46,46,46,46,46,46,46,46,46,46,46,46,46,46,46,46,46,46,46,46,46,46,46,46,46,46,47,47,47,47,47,47,47,47,47,47,47,47,47,47,47,47,47,47,47,47,47,47,47,47,47,47,47,47,47,47,47,47,47,47,47,47,47,47,47,47,47,47,48,48,48,48,48,48,48,48,48,48,48,48,48,48,48,48,48,48,48,48,48,48,48,48,48,48,48,48,49,49,49,49,49,49,49,49,49,49,49,49,49,49,49,49,49,49,49,49,49,49,49,49,49,49,49,49,50,50,50,50,50,50,50,50,50,50,50,50,50,50,50,50,50,50,50,50,50,50,50,50,50,50,50,50,50,50,50,50,50,50,50,50,50,50,51,51,51,51,51,51,51,51,51,51,51,51,51,51,51,51,51,51,51,51,51,52,52,52,52,52,52,52,52,52,52,52,52,52,52,52,52,52,52,52,52,52,52,52,52,52,52,52,52,52,53,53,53,53,53,53,53,53,53,53,53,53,53,53,53,53,53,53,53,53,53,53,53,54,54,54,54,54,54,54,54,54,54,54,54,54,54,54,54,54,54,54,54,54,54,54,54,54,55,55,55,55,55,55,55,55,55,55,55,55,55,55,55,55,55,55,55,55,55,55,55,55,55,55,55,56,56,56,56,56,56,56,56,56,56,56,56,56,56,56,56,56,56,56,57,57,57,57,57,57,57,57,57,57,57,57,57,57,57,57,57,57,57,57,57,57,57,57,57,57,57,57,58,58,58,58,58,58,58,58,58,58,58,58,58,58,59,59,59,59,59,59,59,59,59,59,59,59,59,59,59,59,59,59,59,59,59,59,59,59,59,59,59,59,59,59,60,60,60,60,60,60,60,60,60,60,60,60,60,60,60,60,60,60,60,60,60,60,60,60,60,60,61,61,61,61,61,61,61,61,61,61,61,61,61,61,61,61,61,61,61,61,61,62,62,62,62,62,62,62,62,62,62,62,62,62,62,62,62,63,63,63,63,63,63,63,63,63,63,63,63,63,63,63,63,63,63,63,63,63,63,63,63,63,64,64,64,64,64,64,64,64,64,64,64,64,64,64,64,64,64,64,64,64,64,65,65,65,65,65,65,65,65,65,65,65,65,65,65,65,65,65,65,66,66,66,66,66,66,66,66,66,66,66,66,66,66,66,66,66,66,66,66,66,67,67,67,67,67,67,67,67,67,67,67,67,67,67,67,67,67,67,67,67,67,67,68,68,68,68,68,68,68,68,68,68,68,68,68,68,68,68,68,69,69,69,69,69,69,69,69,69,69,69,69,69,69,69,69,69,69,70,70,70,70,70,70,70,70,70,70,70,70,70,70,70,70,71,71,71,71,71,71,71,71,71,71,71,71,71,72,72,72,72,72,72,72,72,72,72,72,72,72,72,72,73,73,73,73,73,73,73,73,73,73,73,73,74,74,74,74,74,74,74,74,74,74,74,74,74,74,74,74,75,75,75,75,75,75,75,75,75,75,75,76,76,76,76,76,76,76,76,76,76,76,76,77,77,77,77,77,77,77,77,77,77,78,78,78,78,78,78,78,78,78,78,78,78,79,79,79,79,79,79,79,79,80,80,80,81,81,81,81,81,82,82,82,82,82,82,83,83,83,83,84,84,84,84,85,85,85,85,86,86,87,87,88,88,89,89,90];
unsucc = [3,4,6,9,11,14,16,21,22,23,24,26,29,30,31,34,38,49,4,5,6,7,8,9,10,11,12,13,15,16,17,18,19,20,21,22,23,24,25,27,28,29,30,31,32,33,35,36,37,38,39,40,43,44,45,46,47,49,51,53,55,70,80,5,7,8,10,13,14,17,18,19,26,28,34,68,6,8,9,10,11,12,13,14,15,16,18,20,21,22,23,24,26,27,28,29,30,31,32,33,34,35,37,38,40,49,58,61,62,68,7,8,10,12,13,14,17,18,19,26,27,28,33,34,36,37,39,40,43,45,46,58,68,80,8,9,10,11,12,13,14,15,16,18,20,21,22,23,24,25,26,27,28,29,30,31,32,33,34,35,37,38,39,40,41,42,43,46,47,49,51,53,56,57,58,60,61,62,63,68,70,71,73,9,10,11,13,14,16,17,18,19,21,22,23,24,25,26,29,30,31,34,38,42,49,51,80,10,12,13,14,15,17,18,19,20,26,27,28,33,34,36,37,39,40,43,45,46,58,68,80,11,12,14,15,16,17,19,20,21,22,23,24,26,27,28,29,30,31,32,33,34,35,36,37,38,40,44,49,58,61,62,80,81,12,13,14,15,17,18,19,20,25,26,27,28,33,34,36,37,39,40,42,43,45,46,51,53,58,68,80,13,14,15,16,17,18,19,20,21,22,23,24,25,26,28,29,30,31,34,38,42,49,51,53,56,57,68,80,82,14,15,16,17,18,19,20,21,22,23,24,25,26,27,28,29,30,31,32,33,34,35,36,37,38,39,40,41,42,43,44,46,47,48,49,51,52,54,55,56,57,58,59,60,61,62,63,68,70,71,72,73,78,79,80,81,82,15,16,17,18,19,20,21,22,23,24,25,26,27,28,29,30,31,32,33,34,35,36,37,38,39,40,42,43,44,45,46,47,49,51,53,54,55,56,58,59,60,61,62,64,70,71,72,73,75,77,80,81,83,84,16,17,18,19,21,22,23,24,25,26,27,28,29,30,31,32,33,34,35,36,37,38,39,40,41,42,43,44,45,46,48,49,50,51,54,55,58,59,60,62,68,70,71,73,75,80,82,83,17,18,19,20,22,23,24,25,26,27,28,30,32,33,34,35,36,37,39,40,42,43,44,45,46,47,49,51,53,54,55,58,59,60,62,68,75,77,80,18,19,20,21,22,23,24,25,26,27,28,29,30,31,32,33,34,35,37,38,39,40,41,42,43,45,46,47,49,51,53,56,57,58,60,61,62,63,68,70,71,72,73,19,20,21,22,23,24,26,27,28,29,30,31,32,33,34,35,36,37,38,40,44,49,58,61,62,68,80,81,82,20,21,22,23,24,25,26,27,28,29,30,31,32,33,34,35,36,37,38,39,40,41,42,43,44,46,47,48,49,51,52,53,54,55,56,57,58,60,61,62,63,64,66,68,70,71,72,73,75,77,79,83,84,21,22,23,24,25,26,27,28,29,30,31,32,33,34,35,36,37,38,39,40,41,42,43,44,45,46,48,49,50,51,52,54,55,56,57,58,59,60,62,63,68,70,71,72,73,75,78,80,82,83,22,23,24,25,26,27,28,30,32,33,34,35,36,37,39,40,42,43,44,45,46,47,49,51,53,54,55,58,59,60,62,68,70,75,77,80,82,23,24,25,26,27,28,29,30,31,32,33,34,35,36,37,38,39,40,41,42,43,44,45,46,48,49,50,51,52,53,54,55,56,57,58,59,60,61,62,63,64,65,66,67,68,69,70,71,72,73,74,75,76,78,79,80,81,82,83,86,87,90,91,25,26,27,28,29,31,33,34,36,37,38,39,40,41,42,43,45,46,47,51,53,56,57,58,61,68,72,80,81,82,25,26,27,28,29,31,32,33,34,36,37,38,39,40,41,42,43,45,46,47,51,53,56,57,58,61,68,72,80,81,82,26,27,28,29,30,31,32,33,34,35,36,37,38,39,40,41,43,44,45,46,47,48,49,50,52,54,58,61,62,68,71,73,75,80,81,82,83,27,28,29,30,31,32,33,34,35,36,37,38,39,40,41,43,44,45,46,47,48,49,50,51,52,53,54,55,59,65,68,70,77,80,82,28,29,30,31,33,34,36,38,40,42,49,51,53,56,57,58,60,61,62,68,72,80,81,82,29,30,31,32,34,36,37,38,39,41,42,43,44,45,48,49,51,52,53,55,56,57,64,65,66,80,30,32,33,34,35,36,37,39,40,42,43,44,45,46,47,49,51,53,54,55,58,59,60,62,68,70,71,75,77,80,82,83,31,32,33,34,35,36,37,38,39,40,41,42,43,45,46,47,51,53,56,57,58,61,68,70,72,80,81,82,32,33,34,35,36,37,38,39,40,42,43,44,45,46,47,49,51,53,54,55,56,58,59,60,62,64,68,70,71,72,73,75,77,80,82,83,84,33,34,36,37,38,39,40,41,42,43,44,45,46,47,48,49,51,52,53,54,55,56,57,58,59,60,61,62,63,64,65,66,67,68,69,71,72,73,74,75,76,77,78,80,81,82,84,90,34,35,36,37,38,39,41,42,43,44,45,48,49,50,51,52,53,55,56,57,64,65,66,68,70,80,82,35,36,37,38,39,40,41,42,43,44,45,46,47,48,49,50,51,53,55,56,57,58,60,61,62,63,64,66,68,70,71,72,79,80,81,82,90,36,37,38,39,40,41,42,43,44,45,46,47,48,49,51,52,53,54,55,56,57,58,59,60,61,62,63,64,65,66,67,68,69,71,72,73,74,75,76,77,78,80,81,82,83,84,90,37,38,39,40,41,42,43,44,45,46,47,48,49,50,51,52,53,54,55,56,57,58,59,60,61,62,63,64,65,66,67,68,69,70,71,72,73,74,75,76,77,78,79,80,81,82,83,84,85,86,87,88,90,91,38,40,42,44,49,51,53,55,56,57,58,60,61,62,64,68,70,72,80,81,82,39,40,41,42,43,44,45,46,47,48,49,50,51,52,53,54,55,56,57,58,59,60,61,62,63,64,65,68,69,70,71,72,75,76,77,78,79,80,82,83,40,42,44,49,51,53,55,56,57,58,60,61,62,64,68,70,72,80,81,82,41,42,43,44,45,48,49,50,51,52,53,55,56,57,60,64,65,66,67,68,69,70,80,82,42,43,44,45,46,47,49,51,53,54,55,56,57,58,59,60,61,62,63,64,68,70,71,72,73,75,77,80,81,82,83,84,43,44,45,46,47,48,49,50,51,52,53,54,55,58,59,61,62,65,68,70,71,73,75,77,78,79,80,81,82,83,86,44,48,49,51,52,53,55,56,57,58,60,61,62,63,64,66,68,70,72,79,80,81,82,45,46,47,49,51,53,56,57,58,60,61,62,63,68,70,71,72,73,80,81,82,46,47,48,49,51,52,53,54,55,56,57,58,59,60,61,62,63,64,66,68,70,71,72,73,75,77,78,79,80,81,82,83,84,86,90,48,49,50,51,52,53,55,56,57,58,60,61,62,63,64,65,66,67,68,69,70,72,76,79,80,81,82,90,48,49,50,51,52,53,54,55,56,57,58,59,60,61,62,63,64,65,66,67,68,69,70,71,72,73,74,75,76,77,78,79,80,81,82,83,84,85,86,87,90,91,49,51,53,54,55,56,57,58,59,60,61,62,63,64,66,68,70,71,72,73,75,77,80,81,82,83,84,90,50,51,52,53,54,55,56,57,58,59,60,61,64,65,66,67,68,69,70,72,76,77,78,79,80,81,82,90,51,52,53,54,55,56,57,58,59,60,61,62,63,64,65,66,67,68,69,70,71,72,73,74,75,76,77,78,79,80,81,82,83,84,86,87,90,91,52,54,56,57,58,60,61,62,63,68,70,71,72,73,75,79,80,81,82,83,86,53,54,55,56,57,58,59,60,61,62,63,64,66,68,70,71,72,73,75,77,79,80,81,82,83,84,85,86,90,54,55,56,57,58,59,60,61,62,63,68,70,71,72,73,75,78,79,80,81,82,83,86,55,56,57,58,60,61,62,63,64,65,66,67,68,69,70,71,72,73,74,76,79,80,81,82,90,56,57,58,60,61,62,63,65,68,69,70,71,72,73,75,76,77,79,80,81,82,83,84,85,86,87,88,58,59,60,61,62,65,68,70,71,73,75,77,78,79,80,81,82,83,86,58,59,60,61,62,64,65,66,67,68,70,71,72,73,74,75,77,78,79,80,81,82,83,84,85,86,90,91,59,60,64,65,66,67,68,69,70,76,77,78,80,82,60,61,62,63,64,65,66,67,68,69,70,71,72,73,74,75,76,77,79,80,81,82,83,84,85,86,87,88,89,90,61,62,63,64,65,66,67,68,70,71,72,73,74,75,77,78,79,80,81,82,83,84,85,86,90,91,62,63,64,65,66,67,68,69,70,71,72,73,75,76,77,78,80,82,83,84,85,64,65,66,67,68,69,70,72,76,77,78,79,80,81,82,90,64,65,66,67,68,69,70,71,72,73,74,75,76,77,78,79,80,81,82,83,84,85,86,90,91,65,68,69,70,71,72,73,75,76,77,78,79,80,81,82,83,84,85,86,87,88,66,68,70,71,72,73,75,77,78,79,80,81,82,83,84,85,86,90,68,69,70,71,72,73,75,76,77,78,79,80,81,82,83,84,85,86,87,88,89,68,69,70,71,72,73,75,76,77,78,79,80,81,82,83,84,85,86,87,88,89,90,69,70,71,72,73,74,75,77,78,79,80,81,83,84,86,90,91,70,71,72,73,74,75,77,78,79,80,81,82,83,84,85,86,90,91,71,72,73,74,75,76,77,78,80,81,82,83,84,85,90,91,72,75,76,77,78,79,80,81,82,83,86,87,90,73,74,75,76,77,78,79,80,81,82,83,86,87,90,91,75,76,77,78,79,80,81,82,83,86,87,90,75,76,77,78,79,80,81,82,83,84,85,86,87,88,89,90,76,77,78,79,80,81,82,84,85,90,91,77,78,79,80,81,82,83,84,85,86,90,91,78,79,80,81,82,83,86,87,90,91,79,80,81,82,83,84,85,86,87,88,89,90,80,81,82,83,84,85,90,91,83,84,91,82,83,84,85,91,83,84,86,87,90,91,84,85,90,91,86,87,90,91,86,87,90,91,90,91,90,91,90,91,90,91,91];

USEFUL_RES = [{},
	{11,15},
	{1,2,3,4,5,8,9,10,12,13,14,16},
	{1,2,4,5,8,9,10,12,13,14,16},
	{1,2,4,5,8,9,10,12,13,14,16},
	{1,2,4,5,8,9,10,12,13,14,16},
	{1,5,8,10,12,13,14},
	{1,5,6,7,8,11,12,13,14,15},
	{2,3,4,8,9,10,16},
	{1,2,4,5,8,9,10,12,13,14,16},
	{1,3,5,8,10},
	{1,2,4,5,8,9,10,12,13,14,16},
	{1,2,4,9,10,16},
	{1,2,4,5,8,9,10,12,13,14,16},
	{6,7,8,11,15},
	{1,2,3,4,5,8,9,10,12,13,14,16},
	{8},
	{1,2,3,4,5,8,9,10,11,12,13,14,15,16},
	{1,5,6,7,8,11,15},
	{1,2,3,4,6,7,9,10,11,15,16},
	{1,2,4,5,6,7,8,9,10,11,12,13,14,15,16},
	{1,2,3,4,5,8,9,10,16},
	{1,2,4,5,8,9,10,12,13,14,16},
	{1,2,4,5,8,9,10,12,13,14,16},
	{1,2,4,5,6,7,8,9,10,11,12,13,14,15,16},
	{1,5,8,12,13,14},
	{1,5,8,12,13,14},
	{1,2,4,5,6,7,8,9,10,11,12,13,14,15,16},
	{1,2,4,5,8,9,10,12,13,14,16},
	{1,5,6,7,8,11,12,13,14,15},
	{1,5,6,7,8,11,12,13,14,15},
	{1,3,5,6,7,8,10,11,12,13,14,15},
	{1,2,3,4,5,6,7,8,9,10,11,12,13,14,15,16},
	{1,2,3,4,5,6,7,8,9,10,11,12,13,14,15,16},
	{1,5,6,7,8,11,15},
	{1,5,6,7,8,11,12,13,14,15},
	{1,5,6,7,8,10,11,12,13,14,15},
	{1,2,4,5,8,9,10,12,13,14,16},
	{1,5,6,7,8,11,12,13,14,15},
	{1,2,4,9,10,16},
	{1,5,8,12,13,14},
	{1,2,4,5,8,9,10,16},
	{1,3,5,6,7,8,10,11,12,13,14,15},
	{1,3,5,8,10,12,13,14},
	{1,3,5,6,7,8,10,11,15},
	{1,2,4,5,6,7,8,9,10,11,12,13,14,15,16},
	{6,7,11,15},
	{1,2,4,5,8,9,10,16},
	{1,5,6,7,8,11,12,13,14,15},
	{1,5,8,12,13,14},
	{6,7,11,15},
	{1,2,3,4,5,8,9,10,12,13,14,16},
	{1,5,8},
	{1,2,4,5,8,9,10,11,12,13,14,15,16},
	{1,2,4,5,8,9,10,11,12,13,14,15,16},
	{3,10},
	{1,5,6,7,8,11,12,13,14,15},
	{1,2,4,5,6,7,8,9,10,11,12,13,14,15,16},
	{2,3,4,9,10,16},
	{1,2,4,5,8,9,10,12,13,14,16},
	{1,2,4,5,8,9,10,12,13,14,16},
	{1,5,8,11,15},
	{1,2,4,5,6,7,8,9,10,11,15,16},
	{2,3,4,9,10,11,15,16},
	{1,5,8,12,13,14},
	{2,4,6,7,9,10,11,15,16},
	{1,2,3,4,6,7,9,10,11,15,16},
	{1,2,4,5,6,7,8,9,10,11,12,13,14,15,16},
	{1,2,4,5,8,9,10,12,13,14,16},
	{1,2,4,5,8,9,10,12,13,14,15,16},
	{1,5,8,12,13,14},
	{1,5,8,12,13,14},
	{1,2,4,5,6,7,8,9,10,11,12,13,14,15,16},
	{1,5,8,12,13,14},
	{1,2,3,4,9,10,16},
	{1,3,5,6,7,8,10,11,12,13,14,15},
	{1,2,3,4,5,8,9,10,12,13,14,15,16},
	{1,2,4,5,8,9,10,12,13,14,16},
	{1,2,3,4,5,6,7,8,9,10,11,12,13,14,15,16},
	{1,2,4,9,10,16},
	{1,3,5,8,10,12,13,14},
	{1,2,4,5,6,7,8,9,10,11,12,13,14,15,16},
	{1,2,4,5,6,7,8,9,10,11,12,13,14,15,16},
	{11,15},
	{1,2,4,6,7,9,10,11,15,16},
	{1,2,4,6,7,8,9,10,11,15,16},
	{1,2,3,4,5,8,9,10,16},
	{1,2,4,9,10,16},
	{6,7,10,11,15},
	{1,2,4,5,6,7,8,9,10,11,12,13,14,15,16},
	{1,3,5,6,7,8,10,11,15},
	{}];

POTENTIAL_ACT = [{3,4,5,6,7,8,10,11,12,13,14,16,18,19,20,21,22,23,24,25,26,27,28,29,30,31,32,33,34,35,36,37,38,39,40,41,42,43,44,45,46,48,49,50,52,53,54,55,57,58,60,61,62,63,65,67,68,69,70,71,72,73,74,75,76,77,78,79,80,81,82,83,85,86,87,88,90,91},
	{3,4,5,6,9,10,12,13,14,16,18,20,21,22,23,24,25,28,29,33,34,38,40,42,46,48,52,54,55,58,59,60,61,63,64,66,67,68,69,70,73,75,77,78,79,80,82,83,85,86,87,88,90},
	{3,9,11,16,18,20,22,32,33,34,43,44,45,52,56,59,64,67,75,76,77,79,81,87,91},
	{3,4,5,6,9,10,12,13,14,16,18,20,21,22,23,24,25,28,29,33,34,38,40,42,46,48,52,54,55,58,59,60,61,63,64,66,67,68,69,70,73,75,77,78,79,80,82,83,85,86,87,88,90},
	{3,4,5,6,7,8,10,11,12,14,16,18,19,21,22,23,24,25,26,27,28,29,30,31,32,33,34,35,36,37,38,39,41,42,43,44,45,46,48,49,50,52,53,54,55,57,58,60,61,62,63,65,68,69,70,71,72,73,74,76,77,78,79,81,82,83,87,90,91},
	{8,15,19,20,21,25,28,30,31,32,33,34,35,36,37,39,43,45,46,47,49,51,57,58,63,66,67,68,73,76,79,82,83,85,86,89,90,91},
	{8,15,19,20,21,25,28,30,31,32,33,34,35,36,37,39,43,45,46,47,49,51,57,58,63,66,67,68,73,76,79,82,83,85,86,89,90,91},
	{3,4,5,6,7,8,9,10,11,12,14,15,16,17,18,19,21,22,23,24,25,26,27,28,29,30,31,32,33,34,35,36,37,38,39,41,42,43,44,45,46,48,49,50,52,53,54,55,57,58,60,61,62,63,65,68,69,70,71,72,73,74,76,77,78,79,81,82,83,86,87,90,91},
	{3,4,5,6,9,10,12,13,14,16,18,20,21,22,23,24,25,28,29,33,34,38,40,42,46,48,52,54,55,58,59,60,61,63,64,66,67,68,69,70,73,75,77,78,79,80,82,83,85,86,87,88,90},
	{3,4,5,6,7,9,10,11,12,13,14,16,18,20,21,22,23,24,25,28,29,32,33,34,37,38,40,42,43,44,45,46,48,52,54,55,56,58,59,60,61,63,64,66,67,68,69,70,73,75,76,77,78,79,80,81,82,83,85,86,87,88,89,90,91},
	{2,8,15,18,19,20,21,25,28,30,31,32,33,34,35,36,37,39,43,45,46,47,49,51,54,55,57,58,62,63,64,66,67,68,73,76,79,82,83,84,85,86,89,90,91},
	{3,4,5,6,7,8,10,12,14,16,18,21,23,24,25,26,27,28,29,30,31,32,33,34,36,37,38,39,41,43,44,46,49,50,52,54,55,57,58,60,61,65,68,69,70,71,72,73,74,76,77,78,79,81,82,83,90},
	{3,4,5,6,7,8,10,12,14,16,18,21,23,24,25,26,27,28,29,30,31,32,33,34,36,37,38,39,41,43,44,46,49,50,52,54,55,57,58,60,61,65,68,69,70,71,72,73,74,76,77,78,79,81,82,83,90},
	{3,4,5,6,7,8,10,12,14,16,18,21,23,24,25,26,27,28,29,30,31,32,33,34,36,37,38,39,41,43,44,46,49,50,52,54,55,57,58,60,61,65,68,69,70,71,72,73,74,76,77,78,79,81,82,83,90},
	{2,8,15,18,19,20,21,25,28,30,31,32,33,34,35,36,37,39,43,45,46,47,49,51,54,55,57,58,62,63,64,66,67,68,70,73,76,77,79,82,83,84,85,86,89,90,91},
	{3,4,5,6,9,10,12,13,14,16,18,20,21,22,23,24,25,28,29,33,34,38,40,42,46,48,52,54,55,58,59,60,61,63,64,66,67,68,69,70,73,75,77,78,79,80,82,83,85,86,87,88,90}];
